(set-logic QF_BV)
(declare-fun _substvar_214_ () (_ BitVec 95))
(declare-fun _substvar_156_ () (_ BitVec 95))
(declare-fun _substvar_165_ () (_ BitVec 95))
(declare-fun _substvar_94_ () (_ BitVec 95))
(declare-fun _substvar_292_ () Bool)
(assert (and true true true true true true true true true true true true true true true true true true true true true true true true true true true true true true true true true true true true true true true true true true true true (= _substvar_94_ (_ bv0 95)) (ite _substvar_292_ (= _substvar_156_ (_ bv0 95)) (= _substvar_156_ (concat (_ bv0 94) (bvxor (_ bv0 1) ((_ extract 83 83) _substvar_94_))))) (= _substvar_165_ (concat ((_ extract 93 0) _substvar_156_) (bvxor ((_ extract 94 94) _substvar_156_) ((_ extract 83 83) _substvar_156_)))) (= _substvar_214_ (concat ((_ extract 93 0) _substvar_165_) (_ bv0 1))) true true true true true true true true true true true true true true true true true true true true true true true true true true true true true true true true true true true true true true true true true true true true true true true true true true true true true true true true true true true true true true true true true true true true true true true true true true true true true true true true true true true true true true true true true true true true true true true true true true true true true true true true true true true true true true true true true true true true true true true true true true true true true true true true true true true true true true true true true true true true true true true true true true true true true true true true true true (= (= _substvar_214_ (_ bv0 95)) false)))
(check-sat)
(exit)
